problem_generation/data/GISP/train/er_n=67_m=1310_p=0.60_SET2_setparam=100.00_alpha=0.50_894.lp
maximize
OBJ:100x0 + 100x1 + 100x2 + 100x3 + 100x4 + 100x5 + 100x6 + 100x7 + 100x8 + 100x9 + 100x10 + 100x11 + 100x12 + 100x13 + 100x14 + 100x15 + 100x16 + 100x17 + 100x18 + 100x19 + 100x20 + 100x21 + 100x22 + 100x23 + 100x24 + 100x25 + 100x26 + 100x27 + 100x28 + 100x29 + 100x30 + 100x31 + 100x32 + 100x33 + 100x34 + 100x35 + 100x36 + 100x37 + 100x38 + 100x39 + 100x40 + 100x41 + 100x42 + 100x43 + 100x44 + 100x45 + 100x46 + 100x47 + 100x48 + 100x49 + 100x50 + 100x51 + 100x52 + 100x53 + 100x54 + 100x55 + 100x56 + 100x57 + 100x58 + 100x59 + 100x60 + 100x61 + 100x62 + 100x63 + 100x64 + 100x65 + 100x66 - y15_21 - y47_53 - y26_30 - y36_62 - y47_62 - y15_39 - y17_58 - y28_58 - y59_64 - y8_9 - y9_63 - y0_5 - y48_54 - y0_14 - y6_48 - y0_23 - y11_23 - y40_59 - y21_55 - y33_38 - y2_32 - y25_34 - y33_47 - y44_56 - y25_52 - y51_64 - y2_59 - y25_61 - y22_37 - y3_33 - y14_33 - y36_48 - y47_48 - y17_44 - y7_21 - y28_53 - y36_66 - y17_62 - y28_62 - y21_32 - y21_41 - y6_52 - y40_54 - y21_50 - y29_63 - y10_40 - y10_49 - y44_51 - y25_47 - y10_58 - y35_60 - y3_37 - y14_37 - y7_16 - y36_52 - y47_52 - y17_48 - y36_61 - y9_44 - y5_55 - y5_64 - y28_66 - y21_27 - y29_40 - y21_36 - y6_47 - y29_49 - y40_49 - y21_54 - y10_17 - y39_62 - y10_35 - y25_33 - y25_42 - y32_41 - y51_54 - y2_49 - y43_50 - y22_27 - y51_63 - y3_23 - y14_23 - y32_59 - y43_59 - y16_60 - y36_47 - y17_52 - y36_65 - y9_48 - y47_65 - y9_57 - y42_63 - y39_48 - y39_57 - y31_53 - y54_55 - y10_30 - y20_62 - y13_32 - y4_63 - y32_45 - y35_41 - y3_18 - y14_18 - y32_54 - y13_50 - y24_50 - y43_54 - y43_63 - y1_57 - y16_55 - y1_66 - y5_36 - y36_51 - y9_34 - y5_45 - y9_43 - y50_53 - y5_63 - y29_30 - y58_66 - y21_26 - y6_37 - y42_58 - y21_35 - y8_65 - y30_65 - y39_52 - y31_57 - y2_30 - y4_49 - y13_27 - y13_36 - y32_49 - y1_43 - y13_45 - y32_58 - y1_61 - y46_60 - y17_33 - y9_38 - y58_61 - y27_55 - y8_51 - y0_56 - y2_7 - y23_39 - y2_16 - y20_61 - y32_35 - y12_66 - y1_29 - y24_31 - y1_38 - y35_40 - y13_49 - y16_45 - y5_8 - y1_56 - y16_54 - y17_19 - y5_35 - y6_9 - y6_18 - y27_50 - y58_65 - y8_46 - y19_46 - y19_55 - y42_57 - y0_51 - y20_29 - y11_60 - y31_38 - y39_60 - y23_43 - y12_52 - y23_52 - y13_26 - y24_26 - y4_57 - y13_35 - y46_59 - y57_59 - y9_19 - y15_53 - y49_55 - y5_39 - y27_36 - y8_32 - y27_45 - y30_41 - y42_43 - y50_56 - y42_52 - y11_46 - y8_59 - y0_55 - y20_33 - y23_29 - y20_42 - y4_34 - y12_56 - y1_19 - y45_53 - y1_28 - y24_30 - y22_60 - y45_62 - y1_37 - y16_35 - y5_16 - y15_48 - y26_48 - y38_59 - y7_53 - y19_36 - y8_45 - y30_45 - y11_50 - y19_63 - y20_28 - y60_64 - y0_59 - y12_24 - y23_24 - y41_60 - y33_65 - y44_65 - y13_16 - y45_48 - y22_55 - y45_57 - y1_32 - y37_53 - y3_60 - y14_60 - y26_34 - y46_49 - y26_43 - y18_39 - y15_52 - y26_52 - y15_61 - y26_61 - y38_63 - y18_57 - y8_22 - y11_18 - y7_66 - y19_31 - y11_27 - y19_40 - y11_36 - y0_45 - y30_58 - y20_23 - y31_32 - y33_51 - y12_37 - y25_56 - y1_9 - y34_43 - y34_52 - y64_65 - y14_46 - y34_61 - y45_61 - y3_55 - y3_64 - y37_66 - y15_38 - y26_47 - y15_56 - y26_56 - y0_4 - y8_17 - y26_65 - y11_13 - y18_61 - y8_26 - y27_39 - y0_22 - y8_35 - y11_31 - y21_63 - y33_46 - y25_51 - y10_62 - y1_4 - y1_13 - y45_47 - y14_41 - y37_43 - y14_50 - y37_61 - y15_33 - y26_33 - y15_42 - y18_38 - y8_12 - y19_21 - y48_57 - y52_54 - y44_50 - y33_59 - y25_55 - y10_66 - y2_62 - y22_40 - y34_42 - y37_38 - y14_45 - y14_54 - y7_15 - y18_33 - y26_46 - y28_65 - y18_42 - y29_39 - y0_12 - y29_48 - y21_44 - y40_57 - y21_53 - y21_62 - y10_34 - y25_32 - y10_43 - y25_41 - y10_52 - y33_54 - y3_13 - y10_61 - y25_59 - y34_37 - y3_31 - y14_31 - y14_40 - y22_53 - y14_49 - y36_46 - y26_32 - y28_51 - y7_28 - y28_60 - y18_37 - y8_11 - y9_65 - y40_43 - y11_16 - y29_52 - y21_48 - y40_61 - y10_29 - y25_27 - y33_49 - y44_49 - y14_17 - y51_66 - y14_26 - y43_62 - y17_46 - y59_61 - y6_27 - y9_60 - y6_54 - y29_56 - y21_61 - y10_24 - y10_42 - y33_44 - y43_48 - y22_25 - y51_61 - y32_57 - y43_57 - y14_30 - y32_66 - y17_32 - y17_50 - y28_50 - y47_63 - y9_46 - y17_59 - y9_55 - y21_38 - y21_47 - y2_6 - y31_60 - y54_62 - y32_43 - y51_56 - y24_39 - y3_25 - y36_40 - y17_36 - y36_49 - y9_32 - y5_43 - y5_52 - y17_54 - y28_54 - y5_61 - y6_26 - y21_24 - y6_35 - y6_44 - y42_65 - y54_57 - y10_32 - y12_51 - y23_51 - y20_64 - y2_37 - y32_38 - y13_34 - y24_34 - y3_11 - y51_60 - y24_43 - y35_43 - y32_56 - y24_52 - y43_65 - y17_22 - y9_18 - y16_66 - y28_31 - y9_36 - y28_49 - y6_12 - y58_59 - y50_55 - y6_30 - y21_28 - y6_39 - y8_58 - y0_63 - y2_5 - y20_41 - y10_18 - y39_54 - y39_63 - y12_46 - y23_46 - y54_61 - y62_65 - y32_33 - y32_42 - y16_25 - y51_55 - y1_36 - y13_38 - y35_38 - y16_43 - y5_15 - y65_66 - y57_62 - y36_39 - y49_58 - y9_31 - y5_51 - y27_48 - y6_25 - y50_59 - y19_53 - y30_53 - y27_66 - y42_64 - y0_58 - y20_36 - y31_36 - y10_13 - y12_32 - y23_32 - y2_9 - y31_54 - y4_37 - y12_50 - y20_63 - y31_63 - y53_60 - y4_55 - y1_31 - y24_33 - y16_29 - y34_65 - y1_40 - y35_51 - y5_10 - y46_48 - y38_44 - y49_53 - y28_30 - y9_35 - y27_34 - y6_11 - y18_65 - y6_20 - y8_39 - y19_39 - y19_48 - y0_44 - y30_57 - y42_59 - y20_31 - y23_27 - y20_40 - y4_23 - y31_49 - y12_45 - y20_58 - y31_58 - y23_54 - y1_17 - y4_50 - y13_28 - y24_28 - y53_64 - y34_60 - y1_35 - y35_37 - y37_65 - y57_61 - y15_55 - y7_51 - y26_64 - y8_34 - y19_34 - y8_43 - y19_43 - y30_43 - y42_45 - y8_52 - y19_52 - y27_65 - y30_52 - y8_61 - y20_26 - y4_18 - y0_66 - y12_31 - y23_31 - y4_27 - y12_49 - y45_46 - y34_55 - y45_55 - y3_58 - y37_60 - y5_9 - y38_43 - y46_56 - y57_65 - y8_20 - y19_20 - y19_29 - y11_25 - y8_38 - y30_38 - y0_34 - y8_47 - y42_49 - y41_53 - y52_53 - y60_66 - y4_13 - y12_26 - y41_62 - y52_62 - y44_58 - y4_31 - y1_7 - y34_50 - y53_63 - y16_23 - y34_59 - y3_62 - y15_36 - y7_32 - y27_28 - y48_60 - y0_20 - y11_20 - y27_46 - y11_29 - y29_65 - y30_42 - y11_38 - y19_51 - y30_51 - y11_47 - y12_21 - y12_30 - y52_66 - y33_62 - y4_35 - y34_45 - y1_20 - y53_58 - y7_27 - y26_40 - y26_49 - y26_58 - y7_54 - y8_19 - y0_15 - y29_60 - y8_37 - y21_65 - y4_12 - y33_48 - y41_61 - y4_21 - y10_55 - y44_66 - y2_60 - y22_38 - y22_47 - y34_49 - y15_26 - y55_62 - y15_44 - y18_40 - y0_1 - y7_49 - y0_10 - y8_23 - y11_19 - y21_51 - y6_62 - y21_60 - y33_34 - y41_47 - y4_7 - y52_56 - y10_50 - y33_52 - y52_65 - y2_46 - y14_20
 Subject to
C1: x0+x1-y0_1 <=1 
C2: x0+x2 <=1 
C3: x0+x4-y0_4 <=1 
C4: x0+x5-y0_5 <=1 
C5: x0+x10-y0_10 <=1 
C6: x0+x12-y0_12 <=1 
C7: x0+x13 <=1 
C8: x0+x14-y0_14 <=1 
C9: x0+x15-y0_15 <=1 
C10: x0+x16 <=1 
C11: x0+x18 <=1 
C12: x0+x19 <=1 
C13: x0+x20-y0_20 <=1 
C14: x0+x22-y0_22 <=1 
C15: x0+x23-y0_23 <=1 
C16: x0+x24 <=1 
C17: x0+x25 <=1 
C18: x0+x31 <=1 
C19: x0+x32 <=1 
C20: x0+x34-y0_34 <=1 
C21: x0+x35 <=1 
C22: x0+x36 <=1 
C23: x0+x41 <=1 
C24: x0+x42 <=1 
C25: x0+x44-y0_44 <=1 
C26: x0+x45-y0_45 <=1 
C27: x0+x51-y0_51 <=1 
C28: x0+x53 <=1 
C29: x0+x55-y0_55 <=1 
C30: x0+x56-y0_56 <=1 
C31: x0+x57 <=1 
C32: x0+x58-y0_58 <=1 
C33: x0+x59-y0_59 <=1 
C34: x0+x60 <=1 
C35: x0+x62 <=1 
C36: x0+x63-y0_63 <=1 
C37: x0+x64 <=1 
C38: x0+x66-y0_66 <=1 
C39: x1+x2 <=1 
C40: x1+x4-y1_4 <=1 
C41: x1+x5 <=1 
C42: x1+x7-y1_7 <=1 
C43: x1+x9-y1_9 <=1 
C44: x1+x12 <=1 
C45: x1+x13-y1_13 <=1 
C46: x1+x15 <=1 
C47: x1+x17-y1_17 <=1 
C48: x1+x18 <=1 
C49: x1+x19-y1_19 <=1 
C50: x1+x20-y1_20 <=1 
C51: x1+x23 <=1 
C52: x1+x25 <=1 
C53: x1+x28-y1_28 <=1 
C54: x1+x29-y1_29 <=1 
C55: x1+x30 <=1 
C56: x1+x31-y1_31 <=1 
C57: x1+x32-y1_32 <=1 
C58: x1+x33 <=1 
C59: x1+x35-y1_35 <=1 
C60: x1+x36-y1_36 <=1 
C61: x1+x37-y1_37 <=1 
C62: x1+x38-y1_38 <=1 
C63: x1+x40-y1_40 <=1 
C64: x1+x43-y1_43 <=1 
C65: x1+x47 <=1 
C66: x1+x50 <=1 
C67: x1+x52 <=1 
C68: x1+x53 <=1 
C69: x1+x54 <=1 
C70: x1+x56-y1_56 <=1 
C71: x1+x57-y1_57 <=1 
C72: x1+x61-y1_61 <=1 
C73: x1+x62 <=1 
C74: x1+x63 <=1 
C75: x1+x66-y1_66 <=1 
C76: x2+x3 <=1 
C77: x2+x5-y2_5 <=1 
C78: x2+x6-y2_6 <=1 
C79: x2+x7-y2_7 <=1 
C80: x2+x9-y2_9 <=1 
C81: x2+x11 <=1 
C82: x2+x12 <=1 
C83: x2+x13 <=1 
C84: x2+x16-y2_16 <=1 
C85: x2+x18 <=1 
C86: x2+x20 <=1 
C87: x2+x23 <=1 
C88: x2+x26 <=1 
C89: x2+x29 <=1 
C90: x2+x30-y2_30 <=1 
C91: x2+x31 <=1 
C92: x2+x32-y2_32 <=1 
C93: x2+x34 <=1 
C94: x2+x35 <=1 
C95: x2+x37-y2_37 <=1 
C96: x2+x38 <=1 
C97: x2+x39 <=1 
C98: x2+x40 <=1 
C99: x2+x43 <=1 
C100: x2+x46-y2_46 <=1 
C101: x2+x47 <=1 
C102: x2+x48 <=1 
C103: x2+x49-y2_49 <=1 
C104: x2+x55 <=1 
C105: x2+x56 <=1 
C106: x2+x57 <=1 
C107: x2+x58 <=1 
C108: x2+x59-y2_59 <=1 
C109: x2+x60-y2_60 <=1 
C110: x2+x62-y2_62 <=1 
C111: x2+x63 <=1 
C112: x2+x64 <=1 
C113: x2+x65 <=1 
C114: x2+x66 <=1 
C115: x3+x6 <=1 
C116: x3+x7 <=1 
C117: x3+x8 <=1 
C118: x3+x11-y3_11 <=1 
C119: x3+x13-y3_13 <=1 
C120: x3+x14 <=1 
C121: x3+x15 <=1 
C122: x3+x17 <=1 
C123: x3+x18-y3_18 <=1 
C124: x3+x19 <=1 
C125: x3+x20 <=1 
C126: x3+x23-y3_23 <=1 
C127: x3+x25-y3_25 <=1 
C128: x3+x29 <=1 
C129: x3+x30 <=1 
C130: x3+x31-y3_31 <=1 
C131: x3+x32 <=1 
C132: x3+x33-y3_33 <=1 
C133: x3+x34 <=1 
C134: x3+x37-y3_37 <=1 
C135: x3+x38 <=1 
C136: x3+x39 <=1 
C137: x3+x40 <=1 
C138: x3+x44 <=1 
C139: x3+x45 <=1 
C140: x3+x47 <=1 
C141: x3+x48 <=1 
C142: x3+x50 <=1 
C143: x3+x52 <=1 
C144: x3+x53 <=1 
C145: x3+x54 <=1 
C146: x3+x55-y3_55 <=1 
C147: x3+x56 <=1 
C148: x3+x57 <=1 
C149: x3+x58-y3_58 <=1 
C150: x3+x60-y3_60 <=1 
C151: x3+x62-y3_62 <=1 
C152: x3+x64-y3_64 <=1 
C153: x3+x65 <=1 
C154: x4+x7-y4_7 <=1 
C155: x4+x12-y4_12 <=1 
C156: x4+x13-y4_13 <=1 
C157: x4+x17 <=1 
C158: x4+x18-y4_18 <=1 
C159: x4+x19 <=1 
C160: x4+x21-y4_21 <=1 
C161: x4+x23-y4_23 <=1 
C162: x4+x27-y4_27 <=1 
C163: x4+x29 <=1 
C164: x4+x31-y4_31 <=1 
C165: x4+x32 <=1 
C166: x4+x34-y4_34 <=1 
C167: x4+x35-y4_35 <=1 
C168: x4+x37-y4_37 <=1 
C169: x4+x38 <=1 
C170: x4+x39 <=1 
C171: x4+x40 <=1 
C172: x4+x42 <=1 
C173: x4+x43 <=1 
C174: x4+x46 <=1 
C175: x4+x49-y4_49 <=1 
C176: x4+x50-y4_50 <=1 
C177: x4+x51 <=1 
C178: x4+x53 <=1 
C179: x4+x55-y4_55 <=1 
C180: x4+x57-y4_57 <=1 
C181: x4+x62 <=1 
C182: x4+x63-y4_63 <=1 
C183: x4+x65 <=1 
C184: x5+x7 <=1 
C185: x5+x8-y5_8 <=1 
C186: x5+x9-y5_9 <=1 
C187: x5+x10-y5_10 <=1 
C188: x5+x13 <=1 
C189: x5+x14 <=1 
C190: x5+x15-y5_15 <=1 
C191: x5+x16-y5_16 <=1 
C192: x5+x18 <=1 
C193: x5+x19 <=1 
C194: x5+x25 <=1 
C195: x5+x26 <=1 
C196: x5+x27 <=1 
C197: x5+x28 <=1 
C198: x5+x30 <=1 
C199: x5+x33 <=1 
C200: x5+x35-y5_35 <=1 
C201: x5+x36-y5_36 <=1 
C202: x5+x37 <=1 
C203: x5+x39-y5_39 <=1 
C204: x5+x40 <=1 
C205: x5+x41 <=1 
C206: x5+x43-y5_43 <=1 
C207: x5+x44 <=1 
C208: x5+x45-y5_45 <=1 
C209: x5+x46 <=1 
C210: x5+x49 <=1 
C211: x5+x50 <=1 
C212: x5+x51-y5_51 <=1 
C213: x5+x52-y5_52 <=1 
C214: x5+x53 <=1 
C215: x5+x54 <=1 
C216: x5+x55-y5_55 <=1 
C217: x5+x56 <=1 
C218: x5+x60 <=1 
C219: x5+x61-y5_61 <=1 
C220: x5+x62 <=1 
C221: x5+x63-y5_63 <=1 
C222: x5+x64-y5_64 <=1 
C223: x6+x9-y6_9 <=1 
C224: x6+x10 <=1 
C225: x6+x11-y6_11 <=1 
C226: x6+x12-y6_12 <=1 
C227: x6+x13 <=1 
C228: x6+x14 <=1 
C229: x6+x16 <=1 
C230: x6+x18-y6_18 <=1 
C231: x6+x19 <=1 
C232: x6+x20-y6_20 <=1 
C233: x6+x21 <=1 
C234: x6+x22 <=1 
C235: x6+x25-y6_25 <=1 
C236: x6+x26-y6_26 <=1 
C237: x6+x27-y6_27 <=1 
C238: x6+x28 <=1 
C239: x6+x30-y6_30 <=1 
C240: x6+x32 <=1 
C241: x6+x33 <=1 
C242: x6+x34 <=1 
C243: x6+x35-y6_35 <=1 
C244: x6+x37-y6_37 <=1 
C245: x6+x39-y6_39 <=1 
C246: x6+x41 <=1 
C247: x6+x44-y6_44 <=1 
C248: x6+x45 <=1 
C249: x6+x47-y6_47 <=1 
C250: x6+x48-y6_48 <=1 
C251: x6+x49 <=1 
C252: x6+x50 <=1 
C253: x6+x52-y6_52 <=1 
C254: x6+x54-y6_54 <=1 
C255: x6+x56 <=1 
C256: x6+x60 <=1 
C257: x6+x62-y6_62 <=1 
C258: x6+x64 <=1 
C259: x6+x66 <=1 
C260: x7+x8 <=1 
C261: x7+x11 <=1 
C262: x7+x13 <=1 
C263: x7+x15-y7_15 <=1 
C264: x7+x16-y7_16 <=1 
C265: x7+x17 <=1 
C266: x7+x19 <=1 
C267: x7+x21-y7_21 <=1 
C268: x7+x22 <=1 
C269: x7+x23 <=1 
C270: x7+x26 <=1 
C271: x7+x27-y7_27 <=1 
C272: x7+x28-y7_28 <=1 
C273: x7+x29 <=1 
C274: x7+x30 <=1 
C275: x7+x32-y7_32 <=1 
C276: x7+x33 <=1 
C277: x7+x35 <=1 
C278: x7+x36 <=1 
C279: x7+x40 <=1 
C280: x7+x45 <=1 
C281: x7+x48 <=1 
C282: x7+x49-y7_49 <=1 
C283: x7+x51-y7_51 <=1 
C284: x7+x53-y7_53 <=1 
C285: x7+x54-y7_54 <=1 
C286: x7+x55 <=1 
C287: x7+x57 <=1 
C288: x7+x63 <=1 
C289: x7+x64 <=1 
C290: x7+x65 <=1 
C291: x7+x66-y7_66 <=1 
C292: x8+x9-y8_9 <=1 
C293: x8+x11-y8_11 <=1 
C294: x8+x12-y8_12 <=1 
C295: x8+x17-y8_17 <=1 
C296: x8+x18 <=1 
C297: x8+x19-y8_19 <=1 
C298: x8+x20-y8_20 <=1 
C299: x8+x21 <=1 
C300: x8+x22-y8_22 <=1 
C301: x8+x23-y8_23 <=1 
C302: x8+x24 <=1 
C303: x8+x26-y8_26 <=1 
C304: x8+x27 <=1 
C305: x8+x28 <=1 
C306: x8+x29 <=1 
C307: x8+x30 <=1 
C308: x8+x31 <=1 
C309: x8+x32-y8_32 <=1 
C310: x8+x34-y8_34 <=1 
C311: x8+x35-y8_35 <=1 
C312: x8+x37-y8_37 <=1 
C313: x8+x38-y8_38 <=1 
C314: x8+x39-y8_39 <=1 
C315: x8+x41 <=1 
C316: x8+x43-y8_43 <=1 
C317: x8+x45-y8_45 <=1 
C318: x8+x46-y8_46 <=1 
C319: x8+x47-y8_47 <=1 
C320: x8+x48 <=1 
C321: x8+x51-y8_51 <=1 
C322: x8+x52-y8_52 <=1 
C323: x8+x53 <=1 
C324: x8+x54 <=1 
C325: x8+x56 <=1 
C326: x8+x57 <=1 
C327: x8+x58-y8_58 <=1 
C328: x8+x59-y8_59 <=1 
C329: x8+x61-y8_61 <=1 
C330: x8+x64 <=1 
C331: x8+x65-y8_65 <=1 
C332: x9+x10 <=1 
C333: x9+x18-y9_18 <=1 
C334: x9+x19-y9_19 <=1 
C335: x9+x22 <=1 
C336: x9+x27 <=1 
C337: x9+x29 <=1 
C338: x9+x30 <=1 
C339: x9+x31-y9_31 <=1 
C340: x9+x32-y9_32 <=1 
C341: x9+x34-y9_34 <=1 
C342: x9+x35-y9_35 <=1 
C343: x9+x36-y9_36 <=1 
C344: x9+x38-y9_38 <=1 
C345: x9+x39 <=1 
C346: x9+x41 <=1 
C347: x9+x43-y9_43 <=1 
C348: x9+x44-y9_44 <=1 
C349: x9+x45 <=1 
C350: x9+x46-y9_46 <=1 
C351: x9+x48-y9_48 <=1 
C352: x9+x49 <=1 
C353: x9+x53 <=1 
C354: x9+x54 <=1 
C355: x9+x55-y9_55 <=1 
C356: x9+x56 <=1 
C357: x9+x57-y9_57 <=1 
C358: x9+x60-y9_60 <=1 
C359: x9+x61 <=1 
C360: x9+x62 <=1 
C361: x9+x63-y9_63 <=1 
C362: x9+x64 <=1 
C363: x9+x65-y9_65 <=1 
C364: x10+x12 <=1 
C365: x10+x13-y10_13 <=1 
C366: x10+x14 <=1 
C367: x10+x15 <=1 
C368: x10+x16 <=1 
C369: x10+x17-y10_17 <=1 
C370: x10+x18-y10_18 <=1 
C371: x10+x19 <=1 
C372: x10+x22 <=1 
C373: x10+x23 <=1 
C374: x10+x24-y10_24 <=1 
C375: x10+x25 <=1 
C376: x10+x26 <=1 
C377: x10+x29-y10_29 <=1 
C378: x10+x30-y10_30 <=1 
C379: x10+x32-y10_32 <=1 
C380: x10+x34-y10_34 <=1 
C381: x10+x35-y10_35 <=1 
C382: x10+x38 <=1 
C383: x10+x40-y10_40 <=1 
C384: x10+x41 <=1 
C385: x10+x42-y10_42 <=1 
C386: x10+x43-y10_43 <=1 
C387: x10+x45 <=1 
C388: x10+x47 <=1 
C389: x10+x49-y10_49 <=1 
C390: x10+x50-y10_50 <=1 
C391: x10+x52-y10_52 <=1 
C392: x10+x53 <=1 
C393: x10+x55-y10_55 <=1 
C394: x10+x56 <=1 
C395: x10+x58-y10_58 <=1 
C396: x10+x59 <=1 
C397: x10+x61-y10_61 <=1 
C398: x10+x62-y10_62 <=1 
C399: x10+x63 <=1 
C400: x10+x64 <=1 
C401: x10+x65 <=1 
C402: x10+x66-y10_66 <=1 
C403: x11+x13-y11_13 <=1 
C404: x11+x16-y11_16 <=1 
C405: x11+x18-y11_18 <=1 
C406: x11+x19-y11_19 <=1 
C407: x11+x20-y11_20 <=1 
C408: x11+x22 <=1 
C409: x11+x23-y11_23 <=1 
C410: x11+x24 <=1 
C411: x11+x25-y11_25 <=1 
C412: x11+x27-y11_27 <=1 
C413: x11+x29-y11_29 <=1 
C414: x11+x31-y11_31 <=1 
C415: x11+x33 <=1 
C416: x11+x34 <=1 
C417: x11+x35 <=1 
C418: x11+x36-y11_36 <=1 
C419: x11+x38-y11_38 <=1 
C420: x11+x39 <=1 
C421: x11+x40 <=1 
C422: x11+x42 <=1 
C423: x11+x43 <=1 
C424: x11+x44 <=1 
C425: x11+x45 <=1 
C426: x11+x46-y11_46 <=1 
C427: x11+x47-y11_47 <=1 
C428: x11+x48 <=1 
C429: x11+x50-y11_50 <=1 
C430: x11+x52 <=1 
C431: x11+x53 <=1 
C432: x11+x55 <=1 
C433: x11+x56 <=1 
C434: x11+x58 <=1 
C435: x11+x60-y11_60 <=1 
C436: x11+x63 <=1 
C437: x11+x64 <=1 
C438: x12+x15 <=1 
C439: x12+x18 <=1 
C440: x12+x21-y12_21 <=1 
C441: x12+x23 <=1 
C442: x12+x24-y12_24 <=1 
C443: x12+x25 <=1 
C444: x12+x26-y12_26 <=1 
C445: x12+x27 <=1 
C446: x12+x30-y12_30 <=1 
C447: x12+x31-y12_31 <=1 
C448: x12+x32-y12_32 <=1 
C449: x12+x35 <=1 
C450: x12+x36 <=1 
C451: x12+x37-y12_37 <=1 
C452: x12+x41 <=1 
C453: x12+x43 <=1 
C454: x12+x44 <=1 
C455: x12+x45-y12_45 <=1 
C456: x12+x46-y12_46 <=1 
C457: x12+x49-y12_49 <=1 
C458: x12+x50-y12_50 <=1 
C459: x12+x51-y12_51 <=1 
C460: x12+x52-y12_52 <=1 
C461: x12+x53 <=1 
C462: x12+x55 <=1 
C463: x12+x56-y12_56 <=1 
C464: x12+x60 <=1 
C465: x12+x62 <=1 
C466: x12+x63 <=1 
C467: x12+x65 <=1 
C468: x12+x66-y12_66 <=1 
C469: x13+x16-y13_16 <=1 
C470: x13+x21 <=1 
C471: x13+x22 <=1 
C472: x13+x24 <=1 
C473: x13+x26-y13_26 <=1 
C474: x13+x27-y13_27 <=1 
C475: x13+x28-y13_28 <=1 
C476: x13+x29 <=1 
C477: x13+x32-y13_32 <=1 
C478: x13+x34-y13_34 <=1 
C479: x13+x35-y13_35 <=1 
C480: x13+x36-y13_36 <=1 
C481: x13+x38-y13_38 <=1 
C482: x13+x43 <=1 
C483: x13+x45-y13_45 <=1 
C484: x13+x46 <=1 
C485: x13+x49-y13_49 <=1 
C486: x13+x50-y13_50 <=1 
C487: x13+x51 <=1 
C488: x13+x52 <=1 
C489: x13+x59 <=1 
C490: x13+x60 <=1 
C491: x13+x61 <=1 
C492: x13+x64 <=1 
C493: x14+x17-y14_17 <=1 
C494: x14+x18-y14_18 <=1 
C495: x14+x19 <=1 
C496: x14+x20-y14_20 <=1 
C497: x14+x23-y14_23 <=1 
C498: x14+x24 <=1 
C499: x14+x26-y14_26 <=1 
C500: x14+x27 <=1 
C501: x14+x28 <=1 
C502: x14+x29 <=1 
C503: x14+x30-y14_30 <=1 
C504: x14+x31-y14_31 <=1 
C505: x14+x33-y14_33 <=1 
C506: x14+x34 <=1 
C507: x14+x36 <=1 
C508: x14+x37-y14_37 <=1 
C509: x14+x38 <=1 
C510: x14+x40-y14_40 <=1 
C511: x14+x41-y14_41 <=1 
C512: x14+x42 <=1 
C513: x14+x45-y14_45 <=1 
C514: x14+x46-y14_46 <=1 
C515: x14+x49-y14_49 <=1 
C516: x14+x50-y14_50 <=1 
C517: x14+x52 <=1 
C518: x14+x54-y14_54 <=1 
C519: x14+x57 <=1 
C520: x14+x58 <=1 
C521: x14+x60-y14_60 <=1 
C522: x14+x62 <=1 
C523: x14+x66 <=1 
C524: x15+x16 <=1 
C525: x15+x17 <=1 
C526: x15+x18 <=1 
C527: x15+x21-y15_21 <=1 
C528: x15+x22 <=1 
C529: x15+x25 <=1 
C530: x15+x26-y15_26 <=1 
C531: x15+x29 <=1 
C532: x15+x30 <=1 
C533: x15+x31 <=1 
C534: x15+x32 <=1 
C535: x15+x33-y15_33 <=1 
C536: x15+x34 <=1 
C537: x15+x36-y15_36 <=1 
C538: x15+x37 <=1 
C539: x15+x38-y15_38 <=1 
C540: x15+x39-y15_39 <=1 
C541: x15+x42-y15_42 <=1 
C542: x15+x43 <=1 
C543: x15+x44-y15_44 <=1 
C544: x15+x48-y15_48 <=1 
C545: x15+x49 <=1 
C546: x15+x51 <=1 
C547: x15+x52-y15_52 <=1 
C548: x15+x53-y15_53 <=1 
C549: x15+x54 <=1 
C550: x15+x55-y15_55 <=1 
C551: x15+x56-y15_56 <=1 
C552: x15+x57 <=1 
C553: x15+x58 <=1 
C554: x15+x60 <=1 
C555: x15+x61-y15_61 <=1 
C556: x15+x62 <=1 
C557: x15+x64 <=1 
C558: x16+x23-y16_23 <=1 
C559: x16+x25-y16_25 <=1 
C560: x16+x27 <=1 
C561: x16+x29-y16_29 <=1 
C562: x16+x30 <=1 
C563: x16+x33 <=1 
C564: x16+x34 <=1 
C565: x16+x35-y16_35 <=1 
C566: x16+x37 <=1 
C567: x16+x41 <=1 
C568: x16+x43-y16_43 <=1 
C569: x16+x44 <=1 
C570: x16+x45-y16_45 <=1 
C571: x16+x49 <=1 
C572: x16+x50 <=1 
C573: x16+x51 <=1 
C574: x16+x53 <=1 
C575: x16+x54-y16_54 <=1 
C576: x16+x55-y16_55 <=1 
C577: x16+x56 <=1 
C578: x16+x58 <=1 
C579: x16+x60-y16_60 <=1 
C580: x16+x61 <=1 
C581: x16+x62 <=1 
C582: x16+x64 <=1 
C583: x16+x65 <=1 
C584: x16+x66-y16_66 <=1 
C585: x17+x18 <=1 
C586: x17+x19-y17_19 <=1 
C587: x17+x20 <=1 
C588: x17+x22-y17_22 <=1 
C589: x17+x24 <=1 
C590: x17+x28 <=1 
C591: x17+x30 <=1 
C592: x17+x32-y17_32 <=1 
C593: x17+x33-y17_33 <=1 
C594: x17+x36-y17_36 <=1 
C595: x17+x40 <=1 
C596: x17+x41 <=1 
C597: x17+x43 <=1 
C598: x17+x44-y17_44 <=1 
C599: x17+x45 <=1 
C600: x17+x46-y17_46 <=1 
C601: x17+x47 <=1 
C602: x17+x48-y17_48 <=1 
C603: x17+x50-y17_50 <=1 
C604: x17+x51 <=1 
C605: x17+x52-y17_52 <=1 
C606: x17+x54-y17_54 <=1 
C607: x17+x55 <=1 
C608: x17+x58-y17_58 <=1 
C609: x17+x59-y17_59 <=1 
C610: x17+x60 <=1 
C611: x17+x62-y17_62 <=1 
C612: x17+x63 <=1 
C613: x17+x65 <=1 
C614: x17+x66 <=1 
C615: x18+x21 <=1 
C616: x18+x23 <=1 
C617: x18+x25 <=1 
C618: x18+x26 <=1 
C619: x18+x29 <=1 
C620: x18+x31 <=1 
C621: x18+x32 <=1 
C622: x18+x33-y18_33 <=1 
C623: x18+x34 <=1 
C624: x18+x35 <=1 
C625: x18+x37-y18_37 <=1 
C626: x18+x38-y18_38 <=1 
C627: x18+x39-y18_39 <=1 
C628: x18+x40-y18_40 <=1 
C629: x18+x42-y18_42 <=1 
C630: x18+x44 <=1 
C631: x18+x45 <=1 
C632: x18+x50 <=1 
C633: x18+x53 <=1 
C634: x18+x54 <=1 
C635: x18+x56 <=1 
C636: x18+x57-y18_57 <=1 
C637: x18+x60 <=1 
C638: x18+x61-y18_61 <=1 
C639: x18+x63 <=1 
C640: x18+x64 <=1 
C641: x18+x65-y18_65 <=1 
C642: x18+x66 <=1 
C643: x19+x20-y19_20 <=1 
C644: x19+x21-y19_21 <=1 
C645: x19+x23 <=1 
C646: x19+x24 <=1 
C647: x19+x26 <=1 
C648: x19+x28 <=1 
C649: x19+x29-y19_29 <=1 
C650: x19+x31-y19_31 <=1 
C651: x19+x32 <=1 
C652: x19+x33 <=1 
C653: x19+x34-y19_34 <=1 
C654: x19+x35 <=1 
C655: x19+x36-y19_36 <=1 
C656: x19+x38 <=1 
C657: x19+x39-y19_39 <=1 
C658: x19+x40-y19_40 <=1 
C659: x19+x43-y19_43 <=1 
C660: x19+x44 <=1 
C661: x19+x46-y19_46 <=1 
C662: x19+x48-y19_48 <=1 
C663: x19+x49 <=1 
C664: x19+x51-y19_51 <=1 
C665: x19+x52-y19_52 <=1 
C666: x19+x53-y19_53 <=1 
C667: x19+x54 <=1 
C668: x19+x55-y19_55 <=1 
C669: x19+x56 <=1 
C670: x19+x58 <=1 
C671: x19+x59 <=1 
C672: x19+x62 <=1 
C673: x19+x63-y19_63 <=1 
C674: x19+x64 <=1 
C675: x19+x65 <=1 
C676: x20+x21 <=1 
C677: x20+x22 <=1 
C678: x20+x23-y20_23 <=1 
C679: x20+x26-y20_26 <=1 
C680: x20+x28-y20_28 <=1 
C681: x20+x29-y20_29 <=1 
C682: x20+x30 <=1 
C683: x20+x31-y20_31 <=1 
C684: x20+x32 <=1 
C685: x20+x33-y20_33 <=1 
C686: x20+x35 <=1 
C687: x20+x36-y20_36 <=1 
C688: x20+x37 <=1 
C689: x20+x38 <=1 
C690: x20+x39 <=1 
C691: x20+x40-y20_40 <=1 
C692: x20+x41-y20_41 <=1 
C693: x20+x42-y20_42 <=1 
C694: x20+x43 <=1 
C695: x20+x44 <=1 
C696: x20+x46 <=1 
C697: x20+x47 <=1 
C698: x20+x50 <=1 
C699: x20+x51 <=1 
C700: x20+x54 <=1 
C701: x20+x57 <=1 
C702: x20+x58-y20_58 <=1 
C703: x20+x61-y20_61 <=1 
C704: x20+x62-y20_62 <=1 
C705: x20+x63-y20_63 <=1 
C706: x20+x64-y20_64 <=1 
C707: x20+x65 <=1 
C708: x21+x23 <=1 
C709: x21+x24-y21_24 <=1 
C710: x21+x26-y21_26 <=1 
C711: x21+x27-y21_27 <=1 
C712: x21+x28-y21_28 <=1 
C713: x21+x30 <=1 
C714: x21+x32-y21_32 <=1 
C715: x21+x34 <=1 
C716: x21+x35-y21_35 <=1 
C717: x21+x36-y21_36 <=1 
C718: x21+x38-y21_38 <=1 
C719: x21+x40 <=1 
C720: x21+x41-y21_41 <=1 
C721: x21+x42 <=1 
C722: x21+x43 <=1 
C723: x21+x44-y21_44 <=1 
C724: x21+x46 <=1 
C725: x21+x47-y21_47 <=1 
C726: x21+x48-y21_48 <=1 
C727: x21+x49 <=1 
C728: x21+x50-y21_50 <=1 
C729: x21+x51-y21_51 <=1 
C730: x21+x52 <=1 
C731: x21+x53-y21_53 <=1 
C732: x21+x54-y21_54 <=1 
C733: x21+x55-y21_55 <=1 
C734: x21+x58 <=1 
C735: x21+x60-y21_60 <=1 
C736: x21+x61-y21_61 <=1 
C737: x21+x62-y21_62 <=1 
C738: x21+x63-y21_63 <=1 
C739: x21+x65-y21_65 <=1 
C740: x22+x23 <=1 
C741: x22+x24 <=1 
C742: x22+x25-y22_25 <=1 
C743: x22+x27-y22_27 <=1 
C744: x22+x37-y22_37 <=1 
C745: x22+x38-y22_38 <=1 
C746: x22+x40-y22_40 <=1 
C747: x22+x41 <=1 
C748: x22+x43 <=1 
C749: x22+x46 <=1 
C750: x22+x47-y22_47 <=1 
C751: x22+x50 <=1 
C752: x22+x52 <=1 
C753: x22+x53-y22_53 <=1 
C754: x22+x55-y22_55 <=1 
C755: x22+x57 <=1 
C756: x22+x60-y22_60 <=1 
C757: x22+x61 <=1 
C758: x22+x62 <=1 
C759: x22+x65 <=1 
C760: x22+x66 <=1 
C761: x23+x24-y23_24 <=1 
C762: x23+x25 <=1 
C763: x23+x26 <=1 
C764: x23+x27-y23_27 <=1 
C765: x23+x28 <=1 
C766: x23+x29-y23_29 <=1 
C767: x23+x30 <=1 
C768: x23+x31-y23_31 <=1 
C769: x23+x32-y23_32 <=1 
C770: x23+x37 <=1 
C771: x23+x39-y23_39 <=1 
C772: x23+x40 <=1 
C773: x23+x43-y23_43 <=1 
C774: x23+x46-y23_46 <=1 
C775: x23+x47 <=1 
C776: x23+x49 <=1 
C777: x23+x51-y23_51 <=1 
C778: x23+x52-y23_52 <=1 
C779: x23+x54-y23_54 <=1 
C780: x23+x60 <=1 
C781: x23+x62 <=1 
C782: x23+x64 <=1 
C783: x23+x65 <=1 
C784: x24+x26-y24_26 <=1 
C785: x24+x28-y24_28 <=1 
C786: x24+x30-y24_30 <=1 
C787: x24+x31-y24_31 <=1 
C788: x24+x33-y24_33 <=1 
C789: x24+x34-y24_34 <=1 
C790: x24+x36 <=1 
C791: x24+x37 <=1 
C792: x24+x39-y24_39 <=1 
C793: x24+x42 <=1 
C794: x24+x43-y24_43 <=1 
C795: x24+x45 <=1 
C796: x24+x47 <=1 
C797: x24+x50-y24_50 <=1 
C798: x24+x52-y24_52 <=1 
C799: x24+x55 <=1 
C800: x24+x57 <=1 
C801: x24+x60 <=1 
C802: x24+x61 <=1 
C803: x24+x64 <=1 
C804: x24+x66 <=1 
C805: x25+x27-y25_27 <=1 
C806: x25+x32-y25_32 <=1 
C807: x25+x33-y25_33 <=1 
C808: x25+x34-y25_34 <=1 
C809: x25+x36 <=1 
C810: x25+x37 <=1 
C811: x25+x39 <=1 
C812: x25+x40 <=1 
C813: x25+x41-y25_41 <=1 
C814: x25+x42-y25_42 <=1 
C815: x25+x43 <=1 
C816: x25+x44 <=1 
C817: x25+x46 <=1 
C818: x25+x47-y25_47 <=1 
C819: x25+x48 <=1 
C820: x25+x51-y25_51 <=1 
C821: x25+x52-y25_52 <=1 
C822: x25+x53 <=1 
C823: x25+x55-y25_55 <=1 
C824: x25+x56-y25_56 <=1 
C825: x25+x59-y25_59 <=1 
C826: x25+x61-y25_61 <=1 
C827: x25+x62 <=1 
C828: x26+x29 <=1 
C829: x26+x30-y26_30 <=1 
C830: x26+x31 <=1 
C831: x26+x32-y26_32 <=1 
C832: x26+x33-y26_33 <=1 
C833: x26+x34-y26_34 <=1 
C834: x26+x35 <=1 
C835: x26+x40-y26_40 <=1 
C836: x26+x42 <=1 
C837: x26+x43-y26_43 <=1 
C838: x26+x46-y26_46 <=1 
C839: x26+x47-y26_47 <=1 
C840: x26+x48-y26_48 <=1 
C841: x26+x49-y26_49 <=1 
C842: x26+x50 <=1 
C843: x26+x51 <=1 
C844: x26+x52-y26_52 <=1 
C845: x26+x53 <=1 
C846: x26+x54 <=1 
C847: x26+x55 <=1 
C848: x26+x56-y26_56 <=1 
C849: x26+x58-y26_58 <=1 
C850: x26+x59 <=1 
C851: x26+x60 <=1 
C852: x26+x61-y26_61 <=1 
C853: x26+x62 <=1 
C854: x26+x63 <=1 
C855: x26+x64-y26_64 <=1 
C856: x26+x65-y26_65 <=1 
C857: x27+x28-y27_28 <=1 
C858: x27+x32 <=1 
C859: x27+x33 <=1 
C860: x27+x34-y27_34 <=1 
C861: x27+x36-y27_36 <=1 
C862: x27+x38 <=1 
C863: x27+x39-y27_39 <=1 
C864: x27+x40 <=1 
C865: x27+x45-y27_45 <=1 
C866: x27+x46-y27_46 <=1 
C867: x27+x48-y27_48 <=1 
C868: x27+x50-y27_50 <=1 
C869: x27+x52 <=1 
C870: x27+x54 <=1 
C871: x27+x55-y27_55 <=1 
C872: x27+x56 <=1 
C873: x27+x59 <=1 
C874: x27+x60 <=1 
C875: x27+x61 <=1 
C876: x27+x65-y27_65 <=1 
C877: x27+x66-y27_66 <=1 
C878: x28+x30-y28_30 <=1 
C879: x28+x31-y28_31 <=1 
C880: x28+x34 <=1 
C881: x28+x36 <=1 
C882: x28+x44 <=1 
C883: x28+x46 <=1 
C884: x28+x47 <=1 
C885: x28+x49-y28_49 <=1 
C886: x28+x50-y28_50 <=1 
C887: x28+x51-y28_51 <=1 
C888: x28+x53-y28_53 <=1 
C889: x28+x54-y28_54 <=1 
C890: x28+x55 <=1 
C891: x28+x56 <=1 
C892: x28+x57 <=1 
C893: x28+x58-y28_58 <=1 
C894: x28+x60-y28_60 <=1 
C895: x28+x62-y28_62 <=1 
C896: x28+x65-y28_65 <=1 
C897: x28+x66-y28_66 <=1 
C898: x29+x30-y29_30 <=1 
C899: x29+x35 <=1 
C900: x29+x38 <=1 
C901: x29+x39-y29_39 <=1 
C902: x29+x40-y29_40 <=1 
C903: x29+x41 <=1 
C904: x29+x42 <=1 
C905: x29+x46 <=1 
C906: x29+x48-y29_48 <=1 
C907: x29+x49-y29_49 <=1 
C908: x29+x50 <=1 
C909: x29+x52-y29_52 <=1 
C910: x29+x53 <=1 
C911: x29+x54 <=1 
C912: x29+x55 <=1 
C913: x29+x56-y29_56 <=1 
C914: x29+x57 <=1 
C915: x29+x59 <=1 
C916: x29+x60-y29_60 <=1 
C917: x29+x62 <=1 
C918: x29+x63-y29_63 <=1 
C919: x29+x65-y29_65 <=1 
C920: x30+x31 <=1 
C921: x30+x33 <=1 
C922: x30+x34 <=1 
C923: x30+x36 <=1 
C924: x30+x37 <=1 
C925: x30+x38-y30_38 <=1 
C926: x30+x41-y30_41 <=1 
C927: x30+x42-y30_42 <=1 
C928: x30+x43-y30_43 <=1 
C929: x30+x45-y30_45 <=1 
C930: x30+x46 <=1 
C931: x30+x47 <=1 
C932: x30+x48 <=1 
C933: x30+x50 <=1 
C934: x30+x51-y30_51 <=1 
C935: x30+x52-y30_52 <=1 
C936: x30+x53-y30_53 <=1 
C937: x30+x57-y30_57 <=1 
C938: x30+x58-y30_58 <=1 
C939: x30+x61 <=1 
C940: x30+x62 <=1 
C941: x30+x63 <=1 
C942: x30+x65-y30_65 <=1 
C943: x31+x32-y31_32 <=1 
C944: x31+x35 <=1 
C945: x31+x36-y31_36 <=1 
C946: x31+x38-y31_38 <=1 
C947: x31+x41 <=1 
C948: x31+x43 <=1 
C949: x31+x47 <=1 
C950: x31+x49-y31_49 <=1 
C951: x31+x50 <=1 
C952: x31+x53-y31_53 <=1 
C953: x31+x54-y31_54 <=1 
C954: x31+x55 <=1 
C955: x31+x56 <=1 
C956: x31+x57-y31_57 <=1 
C957: x31+x58-y31_58 <=1 
C958: x31+x60-y31_60 <=1 
C959: x31+x61 <=1 
C960: x31+x63-y31_63 <=1 
C961: x31+x65 <=1 
C962: x31+x66 <=1 
C963: x32+x33-y32_33 <=1 
C964: x32+x35-y32_35 <=1 
C965: x32+x38-y32_38 <=1 
C966: x32+x41-y32_41 <=1 
C967: x32+x42-y32_42 <=1 
C968: x32+x43-y32_43 <=1 
C969: x32+x45-y32_45 <=1 
C970: x32+x46 <=1 
C971: x32+x49-y32_49 <=1 
C972: x32+x50 <=1 
C973: x32+x54-y32_54 <=1 
C974: x32+x55 <=1 
C975: x32+x56-y32_56 <=1 
C976: x32+x57-y32_57 <=1 
C977: x32+x58-y32_58 <=1 
C978: x32+x59-y32_59 <=1 
C979: x32+x60 <=1 
C980: x32+x65 <=1 
C981: x32+x66-y32_66 <=1 
C982: x33+x34-y33_34 <=1 
C983: x33+x35 <=1 
C984: x33+x38-y33_38 <=1 
C985: x33+x40 <=1 
C986: x33+x41 <=1 
C987: x33+x42 <=1 
C988: x33+x44-y33_44 <=1 
C989: x33+x46-y33_46 <=1 
C990: x33+x47-y33_47 <=1 
C991: x33+x48-y33_48 <=1 
C992: x33+x49-y33_49 <=1 
C993: x33+x50 <=1 
C994: x33+x51-y33_51 <=1 
C995: x33+x52-y33_52 <=1 
C996: x33+x54-y33_54 <=1 
C997: x33+x56 <=1 
C998: x33+x57 <=1 
C999: x33+x59-y33_59 <=1 
C1000: x33+x61 <=1 
C1001: x33+x62-y33_62 <=1 
C1002: x33+x65-y33_65 <=1 
C1003: x33+x66 <=1 
C1004: x34+x35 <=1 
C1005: x34+x36 <=1 
C1006: x34+x37-y34_37 <=1 
C1007: x34+x38 <=1 
C1008: x34+x42-y34_42 <=1 
C1009: x34+x43-y34_43 <=1 
C1010: x34+x45-y34_45 <=1 
C1011: x34+x47 <=1 
C1012: x34+x49-y34_49 <=1 
C1013: x34+x50-y34_50 <=1 
C1014: x34+x52-y34_52 <=1 
C1015: x34+x53 <=1 
C1016: x34+x54 <=1 
C1017: x34+x55-y34_55 <=1 
C1018: x34+x59-y34_59 <=1 
C1019: x34+x60-y34_60 <=1 
C1020: x34+x61-y34_61 <=1 
C1021: x34+x62 <=1 
C1022: x34+x63 <=1 
C1023: x34+x64 <=1 
C1024: x34+x65-y34_65 <=1 
C1025: x34+x66 <=1 
C1026: x35+x36 <=1 
C1027: x35+x37-y35_37 <=1 
C1028: x35+x38-y35_38 <=1 
C1029: x35+x39 <=1 
C1030: x35+x40-y35_40 <=1 
C1031: x35+x41-y35_41 <=1 
C1032: x35+x42 <=1 
C1033: x35+x43-y35_43 <=1 
C1034: x35+x46 <=1 
C1035: x35+x48 <=1 
C1036: x35+x51-y35_51 <=1 
C1037: x35+x53 <=1 
C1038: x35+x54 <=1 
C1039: x35+x57 <=1 
C1040: x35+x60-y35_60 <=1 
C1041: x35+x61 <=1 
C1042: x35+x62 <=1 
C1043: x35+x65 <=1 
C1044: x36+x39-y36_39 <=1 
C1045: x36+x40-y36_40 <=1 
C1046: x36+x41 <=1 
C1047: x36+x42 <=1 
C1048: x36+x43 <=1 
C1049: x36+x44 <=1 
C1050: x36+x45 <=1 
C1051: x36+x46-y36_46 <=1 
C1052: x36+x47-y36_47 <=1 
C1053: x36+x48-y36_48 <=1 
C1054: x36+x49-y36_49 <=1 
C1055: x36+x51-y36_51 <=1 
C1056: x36+x52-y36_52 <=1 
C1057: x36+x53 <=1 
C1058: x36+x61-y36_61 <=1 
C1059: x36+x62-y36_62 <=1 
C1060: x36+x64 <=1 
C1061: x36+x65-y36_65 <=1 
C1062: x36+x66-y36_66 <=1 
C1063: x37+x38-y37_38 <=1 
C1064: x37+x40 <=1 
C1065: x37+x43-y37_43 <=1 
C1066: x37+x44 <=1 
C1067: x37+x48 <=1 
C1068: x37+x49 <=1 
C1069: x37+x50 <=1 
C1070: x37+x51 <=1 
C1071: x37+x52 <=1 
C1072: x37+x53-y37_53 <=1 
C1073: x37+x54 <=1 
C1074: x37+x58 <=1 
C1075: x37+x59 <=1 
C1076: x37+x60-y37_60 <=1 
C1077: x37+x61-y37_61 <=1 
C1078: x37+x62 <=1 
C1079: x37+x65-y37_65 <=1 
C1080: x37+x66-y37_66 <=1 
C1081: x38+x43-y38_43 <=1 
C1082: x38+x44-y38_44 <=1 
C1083: x38+x45 <=1 
C1084: x38+x46 <=1 
C1085: x38+x48 <=1 
C1086: x38+x49 <=1 
C1087: x38+x51 <=1 
C1088: x38+x56 <=1 
C1089: x38+x57 <=1 
C1090: x38+x59-y38_59 <=1 
C1091: x38+x60 <=1 
C1092: x38+x61 <=1 
C1093: x38+x62 <=1 
C1094: x38+x63-y38_63 <=1 
C1095: x39+x40 <=1 
C1096: x39+x43 <=1 
C1097: x39+x46 <=1 
C1098: x39+x48-y39_48 <=1 
C1099: x39+x50 <=1 
C1100: x39+x51 <=1 
C1101: x39+x52-y39_52 <=1 
C1102: x39+x53 <=1 
C1103: x39+x54-y39_54 <=1 
C1104: x39+x56 <=1 
C1105: x39+x57-y39_57 <=1 
C1106: x39+x60-y39_60 <=1 
C1107: x39+x61 <=1 
C1108: x39+x62-y39_62 <=1 
C1109: x39+x63-y39_63 <=1 
C1110: x39+x65 <=1 
C1111: x40+x41 <=1 
C1112: x40+x43-y40_43 <=1 
C1113: x40+x45 <=1 
C1114: x40+x46 <=1 
C1115: x40+x49-y40_49 <=1 
C1116: x40+x50 <=1 
C1117: x40+x51 <=1 
C1118: x40+x54-y40_54 <=1 
C1119: x40+x55 <=1 
C1120: x40+x57-y40_57 <=1 
C1121: x40+x59-y40_59 <=1 
C1122: x40+x61-y40_61 <=1 
C1123: x40+x63 <=1 
C1124: x40+x64 <=1 
C1125: x40+x65 <=1 
C1126: x41+x47-y41_47 <=1 
C1127: x41+x50 <=1 
C1128: x41+x51 <=1 
C1129: x41+x52 <=1 
C1130: x41+x53-y41_53 <=1 
C1131: x41+x55 <=1 
C1132: x41+x58 <=1 
C1133: x41+x60-y41_60 <=1 
C1134: x41+x61-y41_61 <=1 
C1135: x41+x62-y41_62 <=1 
C1136: x41+x63 <=1 
C1137: x41+x66 <=1 
C1138: x42+x43-y42_43 <=1 
C1139: x42+x44 <=1 
C1140: x42+x45-y42_45 <=1 
C1141: x42+x47 <=1 
C1142: x42+x49-y42_49 <=1 
C1143: x42+x51 <=1 
C1144: x42+x52-y42_52 <=1 
C1145: x42+x54 <=1 
C1146: x42+x55 <=1 
C1147: x42+x56 <=1 
C1148: x42+x57-y42_57 <=1 
C1149: x42+x58-y42_58 <=1 
C1150: x42+x59-y42_59 <=1 
C1151: x42+x61 <=1 
C1152: x42+x62 <=1 
C1153: x42+x63-y42_63 <=1 
C1154: x42+x64-y42_64 <=1 
C1155: x42+x65-y42_65 <=1 
C1156: x43+x48-y43_48 <=1 
C1157: x43+x50-y43_50 <=1 
C1158: x43+x51 <=1 
C1159: x43+x52 <=1 
C1160: x43+x54-y43_54 <=1 
C1161: x43+x55 <=1 
C1162: x43+x57-y43_57 <=1 
C1163: x43+x58 <=1 
C1164: x43+x59-y43_59 <=1 
C1165: x43+x60 <=1 
C1166: x43+x61 <=1 
C1167: x43+x62-y43_62 <=1 
C1168: x43+x63-y43_63 <=1 
C1169: x43+x65-y43_65 <=1 
C1170: x44+x46 <=1 
C1171: x44+x49-y44_49 <=1 
C1172: x44+x50-y44_50 <=1 
C1173: x44+x51-y44_51 <=1 
C1174: x44+x56-y44_56 <=1 
C1175: x44+x58-y44_58 <=1 
C1176: x44+x60 <=1 
C1177: x44+x64 <=1 
C1178: x44+x65-y44_65 <=1 
C1179: x44+x66-y44_66 <=1 
C1180: x45+x46-y45_46 <=1 
C1181: x45+x47-y45_47 <=1 
C1182: x45+x48-y45_48 <=1 
C1183: x45+x51 <=1 
C1184: x45+x52 <=1 
C1185: x45+x53-y45_53 <=1 
C1186: x45+x55-y45_55 <=1 
C1187: x45+x56 <=1 
C1188: x45+x57-y45_57 <=1 
C1189: x45+x60 <=1 
C1190: x45+x61-y45_61 <=1 
C1191: x45+x62-y45_62 <=1 
C1192: x45+x63 <=1 
C1193: x45+x64 <=1 
C1194: x45+x66 <=1 
C1195: x46+x48-y46_48 <=1 
C1196: x46+x49-y46_49 <=1 
C1197: x46+x51 <=1 
C1198: x46+x55 <=1 
C1199: x46+x56-y46_56 <=1 
C1200: x46+x58 <=1 
C1201: x46+x59-y46_59 <=1 
C1202: x46+x60-y46_60 <=1 
C1203: x46+x61 <=1 
C1204: x46+x63 <=1 
C1205: x46+x65 <=1 
C1206: x46+x66 <=1 
C1207: x47+x48-y47_48 <=1 
C1208: x47+x49 <=1 
C1209: x47+x52-y47_52 <=1 
C1210: x47+x53-y47_53 <=1 
C1211: x47+x56 <=1 
C1212: x47+x57 <=1 
C1213: x47+x60 <=1 
C1214: x47+x62-y47_62 <=1 
C1215: x47+x63-y47_63 <=1 
C1216: x47+x64 <=1 
C1217: x47+x65-y47_65 <=1 
C1218: x48+x49 <=1 
C1219: x48+x51 <=1 
C1220: x48+x53 <=1 
C1221: x48+x54-y48_54 <=1 
C1222: x48+x55 <=1 
C1223: x48+x57-y48_57 <=1 
C1224: x48+x60-y48_60 <=1 
C1225: x48+x62 <=1 
C1226: x48+x64 <=1 
C1227: x48+x66 <=1 
C1228: x49+x50 <=1 
C1229: x49+x53-y49_53 <=1 
C1230: x49+x55-y49_55 <=1 
C1231: x49+x58-y49_58 <=1 
C1232: x49+x60 <=1 
C1233: x49+x63 <=1 
C1234: x49+x64 <=1 
C1235: x49+x66 <=1 
C1236: x50+x51 <=1 
C1237: x50+x52 <=1 
C1238: x50+x53-y50_53 <=1 
C1239: x50+x55-y50_55 <=1 
C1240: x50+x56-y50_56 <=1 
C1241: x50+x57 <=1 
C1242: x50+x59-y50_59 <=1 
C1243: x51+x52 <=1 
C1244: x51+x54-y51_54 <=1 
C1245: x51+x55-y51_55 <=1 
C1246: x51+x56-y51_56 <=1 
C1247: x51+x57 <=1 
C1248: x51+x60-y51_60 <=1 
C1249: x51+x61-y51_61 <=1 
C1250: x51+x62 <=1 
C1251: x51+x63-y51_63 <=1 
C1252: x51+x64-y51_64 <=1 
C1253: x51+x66-y51_66 <=1 
C1254: x52+x53-y52_53 <=1 
C1255: x52+x54-y52_54 <=1 
C1256: x52+x56-y52_56 <=1 
C1257: x52+x57 <=1 
C1258: x52+x59 <=1 
C1259: x52+x62-y52_62 <=1 
C1260: x52+x63 <=1 
C1261: x52+x65-y52_65 <=1 
C1262: x52+x66-y52_66 <=1 
C1263: x53+x56 <=1 
C1264: x53+x58-y53_58 <=1 
C1265: x53+x60-y53_60 <=1 
C1266: x53+x62 <=1 
C1267: x53+x63-y53_63 <=1 
C1268: x53+x64-y53_64 <=1 
C1269: x53+x65 <=1 
C1270: x54+x55-y54_55 <=1 
C1271: x54+x56 <=1 
C1272: x54+x57-y54_57 <=1 
C1273: x54+x61-y54_61 <=1 
C1274: x54+x62-y54_62 <=1 
C1275: x54+x64 <=1 
C1276: x55+x56 <=1 
C1277: x55+x57 <=1 
C1278: x55+x58 <=1 
C1279: x55+x62-y55_62 <=1 
C1280: x55+x64 <=1 
C1281: x55+x65 <=1 
C1282: x55+x66 <=1 
C1283: x56+x59 <=1 
C1284: x56+x64 <=1 
C1285: x56+x66 <=1 
C1286: x57+x58 <=1 
C1287: x57+x59-y57_59 <=1 
C1288: x57+x61-y57_61 <=1 
C1289: x57+x62-y57_62 <=1 
C1290: x57+x65-y57_65 <=1 
C1291: x57+x66 <=1 
C1292: x58+x59-y58_59 <=1 
C1293: x58+x60 <=1 
C1294: x58+x61-y58_61 <=1 
C1295: x58+x65-y58_65 <=1 
C1296: x58+x66-y58_66 <=1 
C1297: x59+x61-y59_61 <=1 
C1298: x59+x63 <=1 
C1299: x59+x64-y59_64 <=1 
C1300: x60+x62 <=1 
C1301: x60+x64-y60_64 <=1 
C1302: x60+x66-y60_66 <=1 
C1303: x61+x62 <=1 
C1304: x61+x64 <=1 
C1305: x61+x65 <=1 
C1306: x62+x65-y62_65 <=1 
C1307: x63+x65 <=1 
C1308: x63+x66 <=1 
C1309: x64+x65-y64_65 <=1 
C1310: x65+x66-y65_66 <=1 

binary
x0
x1
x2
x3
x4
x5
x6
x7
x8
x9
x10
x11
x12
x13
x14
x15
x16
x17
x18
x19
x20
x21
x22
x23
x24
x25
x26
x27
x28
x29
x30
x31
x32
x33
x34
x35
x36
x37
x38
x39
x40
x41
x42
x43
x44
x45
x46
x47
x48
x49
x50
x51
x52
x53
x54
x55
x56
x57
x58
x59
x60
x61
x62
x63
x64
x65
x66
