problem_generation/data/GISP/train/er_n=67_m=1310_p=0.60_SET2_setparam=100.00_alpha=0.50_894.sol
objective value:                                 1181
x5                                                  1 	(obj:100)
x12                                                 1 	(obj:100)
x17                                                 1 	(obj:100)
x22                                                 1 	(obj:100)
x31                                                 1 	(obj:100)
x32                                                 1 	(obj:100)
x34                                                 1 	(obj:100)
x39                                                 1 	(obj:100)
x42                                                 1 	(obj:100)
x48                                                 1 	(obj:100)
x58                                                 1 	(obj:100)
x59                                                 1 	(obj:100)
y17_58                                              1 	(obj:-1)
y17_48                                              1 	(obj:-1)
y32_59                                              1 	(obj:-1)
y39_48                                              1 	(obj:-1)
y42_58                                              1 	(obj:-1)
y32_58                                              1 	(obj:-1)
y5_39                                               1 	(obj:-1)
y31_32                                              1 	(obj:-1)
y34_42                                              1 	(obj:-1)
y17_32                                              1 	(obj:-1)
y17_59                                              1 	(obj:-1)
y17_22                                              1 	(obj:-1)
y58_59                                              1 	(obj:-1)
y32_42                                              1 	(obj:-1)
y12_32                                              1 	(obj:-1)
y42_59                                              1 	(obj:-1)
y31_58                                              1 	(obj:-1)
y12_31                                              1 	(obj:-1)
y34_59                                              1 	(obj:-1)
